(set-logic ALL)
(declare-rel itp (Int Int Int))
(declare-rel simple!!query ())
(declare-var X Int)
(declare-var Z Int)
(declare-var W Int)
(declare-var X1 Int)
(declare-var Z1 Int)
(declare-var W1 Int)
(rule (=> (and (= Z (* W X))) (itp X Z W)))
(rule (=> (and (itp X Z W) (= W1 (* W X)) (= Z1 (* Z X))) (itp X Z1 W1)))
(rule (=> (and (itp X Z W) (not (= Z (* W X)))) simple!!query))
(query simple!!query)
